p edge 250 3108
e 0 9
e 0 13
e 0 24
e 0 29
e 0 32
e 0 51
e 0 65
e 0 91
e 0 94
e 0 107
e 0 114
e 0 116
e 0 131
e 0 132
e 0 149
e 0 151
e 0 159
e 0 161
e 0 195
e 0 210
e 0 215
e 0 219
e 0 227
e 1 12
e 1 36
e 1 43
e 1 57
e 1 71
e 1 73
e 1 81
e 1 84
e 1 88
e 1 122
e 1 128
e 1 139
e 1 190
e 1 200
e 1 216
e 1 235
e 2 11
e 2 15
e 2 29
e 2 32
e 2 35
e 2 60
e 2 62
e 2 72
e 2 80
e 2 81
e 2 104
e 2 105
e 2 110
e 2 112
e 2 132
e 2 133
e 2 145
e 2 146
e 2 151
e 2 175
e 2 188
e 2 192
e 2 246
e 2 249
e 3 11
e 3 47
e 3 48
e 3 51
e 3 67
e 3 70
e 3 94
e 3 100
e 3 112
e 3 123
e 3 168
e 3 180
e 3 191
e 3 196
e 4 14
e 4 16
e 4 22
e 4 48
e 4 50
e 4 58
e 4 75
e 4 99
e 4 100
e 4 124
e 4 138
e 4 147
e 4 148
e 4 158
e 4 163
e 4 165
e 4 169
e 4 180
e 4 181
e 4 182
e 4 201
e 4 202
e 4 204
e 4 205
e 4 218
e 4 219
e 4 224
e 4 237
e 4 240
e 4 242
e 5 12
e 5 25
e 5 28
e 5 33
e 5 41
e 5 42
e 5 59
e 5 67
e 5 73
e 5 78
e 5 82
e 5 86
e 5 94
e 5 100
e 5 116
e 5 121
e 5 127
e 5 139
e 5 148
e 5 155
e 5 156
e 5 161
e 5 170
e 5 184
e 5 208
e 5 213
e 5 214
e 5 225
e 5 228
e 5 229
e 5 234
e 5 236
e 5 243
e 6 17
e 6 36
e 6 41
e 6 43
e 6 44
e 6 58
e 6 63
e 6 70
e 6 78
e 6 84
e 6 94
e 6 103
e 6 107
e 6 109
e 6 117
e 6 123
e 6 128
e 6 132
e 6 153
e 6 156
e 6 164
e 6 204
e 6 208
e 6 216
e 6 226
e 6 243
e 6 249
e 7 16
e 7 35
e 7 46
e 7 53
e 7 93
e 7 98
e 7 102
e 7 103
e 7 107
e 7 127
e 7 139
e 7 151
e 7 155
e 7 159
e 7 182
e 7 203
e 7 222
e 7 232
e 7 237
e 7 241
e 8 28
e 8 32
e 8 37
e 8 39
e 8 42
e 8 43
e 8 46
e 8 48
e 8 52
e 8 74
e 8 99
e 8 100
e 8 112
e 8 135
e 8 136
e 8 156
e 8 188
e 8 200
e 8 217
e 8 219
e 8 221
e 8 235
e 8 242
e 9 21
e 9 24
e 9 27
e 9 29
e 9 40
e 9 49
e 9 69
e 9 75
e 9 76
e 9 80
e 9 83
e 9 89
e 9 97
e 9 130
e 9 131
e 9 138
e 9 152
e 9 153
e 9 160
e 9 184
e 9 187
e 9 195
e 9 203
e 9 214
e 9 222
e 9 230
e 9 238
e 10 14
e 10 23
e 10 35
e 10 51
e 10 54
e 10 78
e 10 82
e 10 88
e 10 89
e 10 93
e 10 100
e 10 129
e 10 131
e 10 136
e 10 138
e 10 139
e 10 149
e 10 150
e 10 152
e 10 165
e 10 173
e 10 186
e 10 198
e 10 208
e 10 212
e 10 234
e 11 15
e 11 27
e 11 42
e 11 45
e 11 65
e 11 75
e 11 76
e 11 96
e 11 100
e 11 112
e 11 114
e 11 121
e 11 124
e 11 131
e 11 155
e 11 165
e 11 170
e 11 174
e 11 202
e 11 211
e 11 217
e 11 235
e 11 237
e 11 242
e 11 247
e 12 15
e 12 35
e 12 47
e 12 55
e 12 56
e 12 76
e 12 114
e 12 122
e 12 126
e 12 129
e 12 136
e 12 139
e 12 148
e 12 149
e 12 150
e 12 152
e 12 159
e 12 162
e 12 184
e 12 195
e 12 214
e 12 221
e 12 239
e 13 15
e 13 16
e 13 28
e 13 43
e 13 69
e 13 75
e 13 82
e 13 84
e 13 88
e 13 89
e 13 92
e 13 104
e 13 108
e 13 112
e 13 128
e 13 131
e 13 152
e 13 155
e 13 158
e 13 165
e 13 166
e 13 178
e 13 183
e 13 196
e 13 197
e 13 225
e 13 239
e 13 247
e 14 15
e 14 17
e 14 34
e 14 37
e 14 49
e 14 55
e 14 58
e 14 67
e 14 80
e 14 86
e 14 87
e 14 120
e 14 126
e 14 127
e 14 164
e 14 169
e 14 173
e 14 187
e 14 193
e 14 201
e 14 202
e 14 210
e 14 212
e 14 243
e 15 45
e 15 64
e 15 74
e 15 83
e 15 126
e 15 151
e 15 175
e 15 185
e 15 203
e 15 205
e 15 211
e 15 215
e 15 216
e 15 220
e 15 225
e 16 18
e 16 43
e 16 55
e 16 63
e 16 64
e 16 71
e 16 76
e 16 77
e 16 82
e 16 99
e 16 132
e 16 134
e 16 135
e 16 183
e 16 184
e 16 191
e 16 193
e 16 199
e 16 210
e 16 211
e 16 213
e 16 221
e 16 228
e 16 236
e 16 238
e 16 240
e 17 18
e 17 20
e 17 31
e 17 43
e 17 54
e 17 57
e 17 62
e 17 67
e 17 71
e 17 98
e 17 113
e 17 114
e 17 122
e 17 129
e 17 135
e 17 142
e 17 149
e 17 153
e 17 162
e 17 172
e 17 187
e 17 189
e 17 229
e 18 22
e 18 36
e 18 68
e 18 72
e 18 107
e 18 109
e 18 126
e 18 147
e 18 153
e 18 155
e 18 168
e 18 176
e 18 179
e 18 184
e 18 188
e 18 208
e 18 220
e 18 228
e 18 246
e 19 24
e 19 27
e 19 35
e 19 42
e 19 46
e 19 52
e 19 64
e 19 65
e 19 71
e 19 81
e 19 88
e 19 90
e 19 97
e 19 120
e 19 128
e 19 129
e 19 164
e 19 166
e 19 168
e 19 184
e 19 188
e 19 211
e 19 217
e 19 224
e 19 228
e 19 238
e 19 242
e 19 249
e 20 31
e 20 32
e 20 35
e 20 36
e 20 45
e 20 56
e 20 58
e 20 74
e 20 76
e 20 80
e 20 82
e 20 95
e 20 104
e 20 107
e 20 121
e 20 147
e 20 155
e 20 164
e 20 177
e 20 178
e 20 183
e 20 184
e 20 207
e 20 209
e 20 237
e 20 239
e 21 24
e 21 46
e 21 50
e 21 61
e 21 63
e 21 68
e 21 86
e 21 87
e 21 99
e 21 108
e 21 124
e 21 147
e 21 164
e 21 177
e 21 178
e 21 203
e 21 218
e 21 249
e 22 24
e 22 57
e 22 62
e 22 116
e 22 125
e 22 128
e 22 167
e 22 173
e 22 184
e 22 193
e 22 240
e 22 241
e 22 245
e 23 51
e 23 69
e 23 71
e 23 82
e 23 95
e 23 108
e 23 109
e 23 123
e 23 142
e 23 159
e 23 163
e 23 165
e 23 172
e 23 174
e 23 177
e 23 180
e 23 200
e 23 213
e 23 218
e 23 220
e 23 221
e 23 229
e 24 31
e 24 41
e 24 48
e 24 61
e 24 71
e 24 72
e 24 73
e 24 77
e 24 78
e 24 81
e 24 94
e 24 108
e 24 118
e 24 128
e 24 132
e 24 137
e 24 140
e 24 141
e 24 144
e 24 145
e 24 157
e 24 166
e 24 167
e 24 168
e 24 186
e 24 194
e 24 211
e 24 219
e 24 222
e 24 229
e 24 235
e 24 246
e 25 66
e 25 85
e 25 86
e 25 94
e 25 100
e 25 114
e 25 119
e 25 136
e 25 142
e 25 145
e 25 156
e 25 178
e 25 189
e 25 197
e 25 206
e 25 208
e 25 242
e 25 244
e 26 29
e 26 35
e 26 42
e 26 44
e 26 45
e 26 58
e 26 68
e 26 70
e 26 75
e 26 81
e 26 90
e 26 92
e 26 101
e 26 116
e 26 124
e 26 156
e 26 157
e 26 181
e 26 187
e 26 192
e 26 206
e 26 221
e 26 224
e 26 238
e 26 247
e 27 65
e 27 84
e 27 91
e 27 97
e 27 103
e 27 141
e 27 152
e 27 156
e 27 215
e 27 224
e 27 231
e 27 245
e 27 246
e 27 248
e 28 39
e 28 50
e 28 61
e 28 69
e 28 75
e 28 76
e 28 87
e 28 94
e 28 106
e 28 117
e 28 136
e 28 148
e 28 173
e 28 176
e 28 187
e 28 191
e 28 193
e 28 204
e 28 215
e 28 229
e 28 240
e 28 247
e 28 248
e 29 39
e 29 47
e 29 50
e 29 65
e 29 66
e 29 68
e 29 69
e 29 110
e 29 111
e 29 121
e 29 124
e 29 126
e 29 132
e 29 136
e 29 142
e 29 149
e 29 162
e 29 172
e 29 173
e 29 190
e 29 197
e 29 202
e 29 234
e 29 236
e 30 39
e 30 44
e 30 71
e 30 73
e 30 86
e 30 113
e 30 124
e 30 154
e 30 165
e 30 174
e 30 180
e 30 184
e 30 192
e 30 193
e 30 194
e 30 196
e 30 202
e 30 210
e 30 222
e 30 227
e 30 232
e 30 233
e 31 43
e 31 57
e 31 106
e 31 115
e 31 122
e 31 137
e 31 150
e 31 171
e 31 178
e 31 186
e 31 193
e 31 195
e 31 203
e 31 205
e 31 215
e 31 219
e 31 229
e 31 230
e 31 236
e 31 249
e 32 35
e 32 37
e 32 64
e 32 66
e 32 72
e 32 94
e 32 95
e 32 96
e 32 97
e 32 113
e 32 122
e 32 132
e 32 134
e 32 149
e 32 159
e 32 163
e 32 170
e 32 181
e 32 184
e 32 201
e 32 211
e 32 229
e 33 37
e 33 39
e 33 43
e 33 45
e 33 47
e 33 51
e 33 55
e 33 66
e 33 89
e 33 99
e 33 107
e 33 109
e 33 130
e 33 146
e 33 151
e 33 163
e 33 164
e 33 168
e 33 172
e 33 207
e 33 214
e 33 237
e 34 42
e 34 45
e 34 71
e 34 83
e 34 85
e 34 90
e 34 94
e 34 109
e 34 123
e 34 128
e 34 140
e 34 148
e 34 149
e 34 170
e 34 177
e 34 210
e 34 212
e 34 219
e 34 221
e 34 229
e 34 231
e 34 241
e 35 39
e 35 45
e 35 46
e 35 48
e 35 50
e 35 67
e 35 73
e 35 88
e 35 119
e 35 123
e 35 131
e 35 135
e 35 150
e 35 165
e 35 181
e 35 187
e 35 191
e 35 199
e 35 202
e 35 206
e 35 207
e 35 208
e 35 209
e 35 226
e 35 240
e 36 47
e 36 48
e 36 76
e 36 88
e 36 91
e 36 94
e 36 95
e 36 113
e 36 122
e 36 125
e 36 129
e 36 136
e 36 144
e 36 168
e 36 174
e 36 178
e 36 182
e 36 193
e 36 208
e 36 212
e 36 214
e 36 245
e 36 247
e 37 40
e 37 56
e 37 61
e 37 78
e 37 95
e 37 102
e 37 107
e 37 116
e 37 134
e 37 141
e 37 161
e 37 169
e 37 174
e 37 177
e 37 199
e 37 205
e 37 211
e 37 248
e 37 249
e 38 39
e 38 46
e 38 50
e 38 58
e 38 94
e 38 99
e 38 100
e 38 103
e 38 125
e 38 130
e 38 131
e 38 144
e 38 152
e 38 157
e 38 172
e 38 192
e 38 200
e 38 207
e 38 223
e 38 225
e 38 239
e 38 247
e 39 40
e 39 58
e 39 68
e 39 87
e 39 100
e 39 140
e 39 144
e 39 150
e 39 154
e 39 157
e 39 163
e 39 165
e 39 174
e 39 177
e 39 204
e 39 220
e 39 234
e 39 240
e 40 41
e 40 44
e 40 46
e 40 49
e 40 54
e 40 58
e 40 66
e 40 81
e 40 101
e 40 106
e 40 117
e 40 118
e 40 119
e 40 126
e 40 131
e 40 143
e 40 160
e 40 169
e 40 170
e 40 172
e 40 188
e 40 196
e 40 198
e 40 199
e 40 209
e 40 220
e 40 229
e 40 233
e 40 237
e 40 238
e 41 42
e 41 77
e 41 85
e 41 95
e 41 144
e 41 145
e 41 158
e 41 169
e 41 171
e 41 172
e 41 177
e 41 188
e 41 212
e 41 217
e 41 228
e 41 239
e 42 67
e 42 77
e 42 95
e 42 99
e 42 119
e 42 130
e 42 152
e 42 161
e 42 164
e 42 180
e 42 183
e 42 213
e 42 226
e 42 229
e 42 231
e 43 49
e 43 84
e 43 90
e 43 96
e 43 109
e 43 110
e 43 120
e 43 128
e 43 149
e 43 151
e 43 159
e 43 177
e 43 178
e 43 186
e 43 201
e 43 209
e 43 219
e 43 221
e 43 223
e 43 233
e 43 245
e 44 73
e 44 89
e 44 105
e 44 114
e 44 119
e 44 120
e 44 132
e 44 168
e 44 189
e 44 191
e 44 197
e 44 215
e 44 217
e 44 223
e 44 226
e 44 230
e 44 248
e 44 249
e 45 51
e 45 53
e 45 79
e 45 94
e 45 109
e 45 115
e 45 125
e 45 135
e 45 186
e 45 208
e 45 210
e 45 228
e 45 229
e 45 234
e 45 247
e 46 71
e 46 82
e 46 94
e 46 103
e 46 115
e 46 121
e 46 125
e 46 148
e 46 158
e 46 162
e 46 174
e 46 175
e 46 202
e 46 217
e 46 237
e 46 239
e 46 243
e 46 247
e 46 248
e 47 68
e 47 88
e 47 91
e 47 101
e 47 102
e 47 123
e 47 125
e 47 135
e 47 137
e 47 145
e 47 149
e 47 152
e 47 154
e 47 171
e 47 180
e 47 188
e 47 190
e 47 216
e 47 225
e 47 231
e 47 245
e 48 60
e 48 67
e 48 70
e 48 72
e 48 76
e 48 102
e 48 104
e 48 111
e 48 113
e 48 118
e 48 123
e 48 131
e 48 136
e 48 138
e 48 141
e 48 159
e 48 178
e 48 185
e 48 186
e 48 199
e 48 206
e 48 211
e 48 229
e 48 235
e 48 249
e 49 60
e 49 66
e 49 70
e 49 71
e 49 103
e 49 108
e 49 118
e 49 124
e 49 165
e 49 169
e 49 170
e 49 172
e 49 173
e 49 185
e 49 197
e 49 199
e 49 213
e 49 217
e 49 246
e 50 71
e 50 91
e 50 129
e 50 136
e 50 145
e 50 146
e 50 147
e 50 150
e 50 162
e 50 166
e 50 173
e 50 174
e 50 196
e 50 206
e 50 209
e 50 210
e 50 228
e 50 231
e 50 233
e 50 245
e 51 59
e 51 62
e 51 69
e 51 81
e 51 88
e 51 111
e 51 135
e 51 145
e 51 159
e 51 175
e 51 198
e 51 199
e 51 206
e 51 207
e 51 208
e 51 216
e 51 229
e 51 243
e 52 84
e 52 86
e 52 96
e 52 129
e 52 136
e 52 155
e 52 167
e 52 178
e 52 185
e 52 197
e 52 198
e 52 210
e 52 236
e 52 241
e 53 73
e 53 75
e 53 76
e 53 80
e 53 101
e 53 113
e 53 116
e 53 132
e 53 138
e 53 140
e 53 141
e 53 144
e 53 145
e 53 154
e 53 165
e 53 168
e 53 171
e 53 176
e 53 177
e 53 185
e 53 200
e 53 221
e 53 222
e 53 224
e 53 242
e 53 243
e 53 244
e 53 249
e 54 66
e 54 83
e 54 88
e 54 94
e 54 126
e 54 145
e 54 159
e 54 161
e 54 165
e 54 179
e 54 196
e 54 217
e 55 63
e 55 66
e 55 69
e 55 72
e 55 97
e 55 107
e 55 112
e 55 120
e 55 132
e 55 163
e 55 164
e 55 166
e 55 167
e 55 170
e 55 172
e 55 184
e 55 196
e 55 201
e 55 204
e 55 210
e 55 213
e 55 249
e 56 60
e 56 71
e 56 72
e 56 76
e 56 77
e 56 91
e 56 102
e 56 107
e 56 128
e 56 169
e 56 175
e 56 179
e 56 184
e 56 209
e 56 226
e 56 231
e 56 249
e 57 58
e 57 60
e 57 87
e 57 92
e 57 99
e 57 114
e 57 123
e 57 129
e 57 154
e 57 170
e 57 182
e 57 187
e 57 188
e 57 220
e 57 221
e 57 224
e 57 225
e 57 233
e 57 239
e 57 242
e 58 67
e 58 70
e 58 72
e 58 74
e 58 81
e 58 97
e 58 98
e 58 113
e 58 128
e 58 133
e 58 135
e 58 137
e 58 148
e 58 149
e 58 161
e 58 166
e 58 174
e 58 202
e 58 206
e 58 212
e 58 221
e 58 225
e 58 226
e 58 239
e 58 240
e 59 85
e 59 120
e 59 123
e 59 129
e 59 149
e 59 150
e 59 163
e 59 168
e 59 171
e 59 177
e 59 178
e 59 184
e 59 223
e 59 227
e 59 233
e 59 243
e 60 73
e 60 81
e 60 92
e 60 121
e 60 128
e 60 153
e 60 155
e 60 160
e 60 161
e 60 164
e 60 181
e 60 185
e 60 188
e 60 212
e 60 214
e 60 220
e 60 233
e 60 241
e 60 248
e 61 69
e 61 124
e 61 138
e 61 143
e 61 157
e 61 158
e 61 174
e 61 198
e 61 216
e 61 233
e 61 234
e 61 242
e 61 244
e 61 249
e 62 63
e 62 64
e 62 68
e 62 79
e 62 86
e 62 90
e 62 101
e 62 103
e 62 106
e 62 110
e 62 113
e 62 125
e 62 141
e 62 146
e 62 151
e 62 165
e 62 170
e 62 181
e 62 197
e 62 212
e 63 64
e 63 71
e 63 79
e 63 81
e 63 121
e 63 124
e 63 128
e 63 130
e 63 150
e 63 152
e 63 163
e 63 178
e 63 220
e 63 232
e 63 234
e 63 241
e 63 244
e 64 69
e 64 72
e 64 88
e 64 101
e 64 102
e 64 105
e 64 132
e 64 160
e 64 172
e 64 182
e 64 183
e 64 204
e 64 245
e 65 66
e 65 68
e 65 74
e 65 90
e 65 93
e 65 103
e 65 106
e 65 114
e 65 123
e 65 147
e 65 159
e 65 174
e 65 180
e 65 185
e 65 196
e 65 210
e 65 211
e 65 231
e 65 247
e 65 248
e 66 67
e 66 77
e 66 92
e 66 123
e 66 125
e 66 127
e 66 133
e 66 143
e 66 152
e 66 158
e 66 177
e 66 180
e 66 198
e 66 206
e 66 245
e 67 75
e 67 82
e 67 95
e 67 109
e 67 113
e 67 134
e 67 155
e 67 164
e 67 168
e 67 179
e 67 212
e 67 227
e 67 228
e 68 73
e 68 75
e 68 81
e 68 93
e 68 99
e 68 107
e 68 119
e 68 124
e 68 129
e 68 141
e 68 149
e 68 157
e 68 158
e 68 161
e 68 162
e 68 165
e 68 171
e 68 178
e 68 179
e 68 181
e 68 194
e 68 196
e 68 202
e 68 207
e 68 220
e 68 228
e 68 240
e 68 241
e 68 242
e 69 70
e 69 76
e 69 78
e 69 83
e 69 87
e 69 105
e 69 110
e 69 130
e 69 132
e 69 136
e 69 145
e 69 150
e 69 151
e 69 171
e 69 183
e 69 198
e 69 199
e 69 211
e 69 212
e 69 215
e 69 219
e 69 220
e 69 232
e 69 235
e 69 239
e 69 246
e 70 78
e 70 80
e 70 94
e 70 123
e 70 133
e 70 142
e 70 162
e 70 166
e 70 167
e 70 168
e 70 169
e 70 172
e 70 180
e 70 209
e 70 226
e 70 236
e 71 72
e 71 85
e 71 121
e 71 135
e 71 141
e 71 143
e 71 148
e 71 202
e 71 207
e 71 226
e 71 249
e 72 93
e 72 101
e 72 114
e 72 120
e 72 131
e 72 133
e 72 136
e 72 138
e 72 141
e 72 154
e 72 171
e 72 192
e 72 195
e 72 198
e 72 210
e 72 213
e 72 219
e 72 239
e 73 86
e 73 97
e 73 113
e 73 121
e 73 129
e 73 131
e 73 144
e 73 148
e 73 152
e 73 170
e 73 192
e 73 202
e 73 218
e 73 228
e 73 231
e 73 239
e 73 240
e 73 242
e 74 80
e 74 97
e 74 98
e 74 122
e 74 132
e 74 133
e 74 147
e 74 149
e 74 151
e 74 152
e 74 158
e 74 164
e 74 166
e 74 171
e 74 185
e 74 187
e 74 207
e 74 218
e 74 225
e 74 227
e 74 229
e 74 231
e 74 239
e 74 242
e 74 245
e 74 247
e 75 88
e 75 90
e 75 94
e 75 99
e 75 112
e 75 121
e 75 125
e 75 130
e 75 142
e 75 153
e 75 160
e 75 161
e 75 166
e 75 168
e 75 183
e 75 210
e 75 241
e 75 243
e 75 246
e 75 247
e 76 84
e 76 118
e 76 166
e 76 174
e 76 179
e 76 182
e 76 196
e 76 197
e 76 200
e 76 229
e 76 233
e 76 234
e 76 240
e 77 107
e 77 115
e 77 124
e 77 129
e 77 147
e 77 158
e 77 184
e 77 191
e 77 201
e 77 226
e 77 228
e 77 244
e 78 80
e 78 81
e 78 92
e 78 96
e 78 100
e 78 103
e 78 106
e 78 115
e 78 125
e 78 133
e 78 147
e 78 156
e 78 163
e 78 173
e 78 177
e 78 180
e 78 183
e 78 192
e 78 193
e 78 196
e 78 203
e 78 230
e 78 237
e 78 248
e 79 82
e 79 90
e 79 95
e 79 116
e 79 119
e 79 120
e 79 122
e 79 139
e 79 151
e 79 152
e 79 162
e 79 173
e 79 177
e 79 178
e 79 185
e 79 188
e 79 214
e 80 89
e 80 92
e 80 107
e 80 118
e 80 125
e 80 128
e 80 170
e 80 172
e 80 176
e 80 178
e 80 183
e 80 190
e 80 237
e 80 240
e 80 244
e 80 248
e 81 147
e 81 150
e 81 157
e 81 166
e 81 169
e 81 179
e 81 186
e 81 210
e 81 217
e 81 225
e 81 231
e 81 235
e 81 249
e 82 93
e 82 99
e 82 101
e 82 128
e 82 130
e 82 145
e 82 150
e 82 159
e 82 166
e 82 175
e 82 207
e 82 208
e 82 212
e 82 215
e 82 221
e 82 224
e 82 239
e 83 104
e 83 109
e 83 115
e 83 120
e 83 128
e 83 130
e 83 138
e 83 141
e 83 144
e 83 148
e 83 149
e 83 187
e 83 190
e 83 205
e 83 239
e 83 245
e 84 88
e 84 89
e 84 93
e 84 102
e 84 116
e 84 138
e 84 140
e 84 141
e 84 144
e 84 158
e 84 160
e 84 171
e 84 176
e 84 187
e 84 194
e 84 203
e 84 210
e 84 216
e 84 222
e 84 224
e 84 226
e 84 245
e 85 88
e 85 91
e 85 95
e 85 114
e 85 119
e 85 154
e 85 159
e 85 177
e 85 182
e 85 185
e 85 186
e 85 195
e 85 199
e 85 210
e 85 218
e 85 234
e 85 236
e 86 122
e 86 125
e 86 135
e 86 140
e 86 150
e 86 168
e 86 171
e 86 173
e 86 174
e 86 193
e 86 194
e 86 203
e 86 205
e 86 242
e 86 244
e 87 89
e 87 95
e 87 120
e 87 129
e 87 139
e 87 142
e 87 146
e 87 148
e 87 156
e 87 173
e 87 189
e 87 202
e 87 236
e 87 238
e 87 240
e 87 249
e 88 94
e 88 95
e 88 129
e 88 133
e 88 148
e 88 153
e 88 167
e 88 170
e 88 171
e 88 173
e 88 176
e 88 199
e 88 210
e 88 212
e 88 223
e 88 237
e 88 243
e 89 97
e 89 99
e 89 103
e 89 110
e 89 140
e 89 168
e 89 197
e 89 208
e 89 217
e 89 230
e 89 233
e 89 240
e 89 249
e 90 111
e 90 113
e 90 121
e 90 125
e 90 128
e 90 129
e 90 136
e 90 138
e 90 148
e 90 160
e 90 166
e 90 176
e 90 180
e 90 181
e 90 184
e 90 192
e 90 197
e 90 211
e 90 229
e 90 249
e 91 96
e 91 103
e 91 105
e 91 106
e 91 112
e 91 130
e 91 159
e 91 161
e 91 171
e 91 180
e 91 212
e 91 225
e 91 235
e 91 249
e 92 128
e 92 157
e 92 158
e 92 166
e 92 177
e 92 182
e 92 192
e 92 193
e 92 200
e 92 206
e 92 213
e 92 224
e 92 228
e 92 230
e 92 241
e 92 249
e 93 121
e 93 157
e 93 160
e 93 163
e 93 166
e 93 173
e 93 184
e 93 186
e 93 199
e 93 200
e 93 210
e 93 219
e 93 223
e 93 234
e 93 244
e 94 114
e 94 124
e 94 142
e 94 152
e 94 157
e 94 179
e 94 185
e 94 188
e 94 193
e 94 239
e 95 123
e 95 136
e 95 143
e 95 144
e 95 150
e 95 157
e 95 159
e 95 160
e 95 202
e 95 213
e 95 219
e 95 231
e 95 237
e 96 105
e 96 106
e 96 124
e 96 131
e 96 144
e 96 146
e 96 152
e 96 155
e 96 174
e 96 189
e 96 192
e 96 195
e 96 206
e 96 208
e 96 219
e 96 221
e 96 228
e 97 117
e 97 128
e 97 143
e 97 160
e 97 161
e 97 164
e 97 172
e 97 183
e 97 200
e 97 219
e 97 224
e 98 113
e 98 140
e 98 144
e 98 148
e 98 153
e 98 154
e 98 160
e 98 165
e 98 198
e 98 199
e 98 211
e 98 212
e 98 233
e 98 236
e 98 237
e 98 239
e 98 243
e 98 245
e 99 112
e 99 116
e 99 125
e 99 150
e 99 158
e 99 160
e 99 165
e 99 170
e 99 178
e 99 193
e 99 215
e 99 220
e 99 222
e 99 224
e 99 237
e 99 244
e 99 245
e 99 246
e 100 113
e 100 115
e 100 137
e 100 165
e 100 182
e 100 186
e 100 205
e 100 214
e 100 221
e 100 224
e 100 235
e 101 103
e 101 109
e 101 125
e 101 141
e 101 142
e 101 148
e 101 173
e 101 179
e 101 193
e 101 195
e 101 210
e 101 211
e 101 230
e 101 235
e 101 236
e 101 241
e 101 245
e 101 246
e 102 108
e 102 118
e 102 123
e 102 127
e 102 145
e 102 146
e 102 160
e 102 161
e 102 169
e 102 187
e 102 199
e 102 231
e 102 232
e 102 238
e 102 245
e 103 112
e 103 115
e 103 123
e 103 129
e 103 130
e 103 138
e 103 158
e 103 163
e 103 169
e 103 178
e 103 179
e 103 187
e 103 207
e 103 208
e 103 210
e 103 217
e 103 219
e 103 229
e 103 230
e 103 242
e 104 110
e 104 119
e 104 123
e 104 127
e 104 130
e 104 135
e 104 141
e 104 142
e 104 149
e 104 151
e 104 161
e 104 180
e 104 194
e 104 195
e 104 217
e 104 220
e 104 230
e 104 233
e 105 107
e 105 109
e 105 121
e 105 125
e 105 131
e 105 143
e 105 170
e 105 187
e 105 199
e 105 203
e 105 205
e 105 237
e 105 240
e 105 246
e 105 248
e 106 114
e 106 124
e 106 150
e 106 154
e 106 171
e 106 173
e 106 177
e 106 190
e 106 193
e 106 203
e 106 229
e 106 242
e 106 244
e 107 118
e 107 140
e 107 144
e 107 145
e 107 150
e 107 152
e 107 159
e 107 167
e 107 222
e 107 237
e 108 110
e 108 116
e 108 147
e 108 150
e 108 163
e 108 176
e 108 182
e 108 192
e 108 195
e 108 200
e 108 201
e 108 210
e 108 218
e 108 238
e 108 241
e 109 119
e 109 123
e 109 126
e 109 160
e 109 163
e 109 171
e 109 192
e 109 201
e 109 204
e 109 209
e 109 231
e 109 249
e 110 124
e 110 125
e 110 149
e 110 157
e 110 159
e 110 183
e 110 213
e 110 215
e 110 221
e 110 229
e 110 241
e 110 249
e 111 121
e 111 140
e 111 146
e 111 149
e 111 150
e 111 160
e 111 199
e 111 207
e 111 220
e 111 222
e 111 230
e 111 233
e 111 245
e 112 124
e 112 126
e 112 134
e 112 136
e 112 140
e 112 150
e 112 151
e 112 165
e 112 174
e 112 177
e 112 188
e 112 202
e 112 207
e 112 208
e 112 211
e 112 217
e 113 122
e 113 140
e 113 156
e 113 163
e 113 167
e 113 183
e 113 193
e 113 194
e 113 196
e 113 204
e 113 242
e 114 117
e 114 123
e 114 127
e 114 128
e 114 140
e 114 147
e 114 165
e 114 167
e 114 196
e 114 200
e 114 223
e 114 228
e 114 241
e 114 245
e 115 137
e 115 143
e 115 158
e 115 159
e 115 160
e 115 162
e 115 165
e 115 167
e 115 172
e 115 177
e 115 182
e 115 204
e 115 209
e 116 128
e 116 145
e 116 155
e 116 157
e 116 170
e 116 189
e 116 204
e 116 211
e 116 234
e 117 120
e 117 124
e 117 137
e 117 140
e 117 141
e 117 147
e 117 152
e 117 166
e 117 170
e 117 174
e 117 198
e 117 209
e 117 217
e 117 239
e 117 241
e 117 243
e 118 150
e 118 156
e 118 158
e 118 195
e 118 203
e 118 204
e 118 211
e 118 215
e 118 224
e 118 237
e 118 247
e 119 122
e 119 124
e 119 125
e 119 166
e 119 168
e 119 174
e 119 205
e 119 218
e 119 224
e 119 231
e 119 233
e 119 237
e 120 121
e 120 122
e 120 134
e 120 149
e 120 158
e 120 160
e 120 175
e 120 184
e 120 190
e 120 191
e 120 203
e 120 209
e 120 229
e 120 232
e 120 244
e 121 131
e 121 136
e 121 142
e 121 150
e 121 157
e 121 161
e 121 164
e 121 176
e 121 198
e 121 228
e 122 123
e 122 131
e 122 132
e 122 158
e 122 159
e 122 162
e 122 166
e 122 172
e 122 175
e 122 180
e 122 212
e 122 215
e 122 217
e 122 220
e 122 228
e 122 231
e 122 240
e 123 132
e 123 135
e 123 141
e 123 146
e 123 149
e 123 167
e 123 176
e 123 190
e 123 197
e 123 205
e 123 210
e 123 221
e 123 230
e 123 231
e 123 234
e 123 248
e 124 138
e 124 150
e 124 152
e 124 158
e 124 162
e 124 181
e 124 194
e 124 195
e 124 211
e 124 213
e 124 217
e 124 226
e 124 243
e 125 126
e 125 130
e 125 131
e 125 139
e 125 147
e 125 150
e 125 153
e 125 157
e 125 159
e 125 164
e 125 166
e 125 172
e 125 181
e 125 212
e 125 221
e 125 222
e 125 225
e 126 127
e 126 131
e 126 132
e 126 147
e 126 151
e 126 155
e 126 163
e 126 166
e 126 177
e 126 178
e 126 187
e 126 191
e 126 206
e 126 216
e 126 238
e 126 241
e 126 249
e 127 136
e 127 145
e 127 149
e 127 150
e 127 159
e 127 182
e 127 188
e 127 194
e 127 199
e 127 213
e 127 214
e 127 218
e 127 219
e 127 223
e 127 229
e 127 237
e 127 241
e 127 245
e 128 130
e 128 131
e 128 147
e 128 151
e 128 152
e 128 161
e 128 177
e 128 199
e 128 201
e 128 203
e 128 214
e 128 217
e 128 238
e 128 242
e 128 248
e 129 135
e 129 147
e 129 149
e 129 153
e 129 155
e 129 161
e 129 165
e 129 184
e 129 191
e 129 193
e 129 196
e 129 214
e 129 224
e 129 236
e 129 244
e 129 249
e 130 136
e 130 143
e 130 149
e 130 173
e 130 180
e 130 187
e 130 207
e 130 225
e 130 228
e 130 234
e 130 242
e 130 243
e 130 244
e 131 132
e 131 134
e 131 135
e 131 136
e 131 155
e 131 172
e 131 189
e 131 190
e 131 191
e 131 193
e 131 214
e 131 218
e 131 222
e 131 224
e 132 136
e 132 140
e 132 147
e 132 149
e 132 151
e 132 175
e 132 214
e 132 247
e 133 134
e 133 139
e 133 159
e 133 178
e 133 179
e 133 194
e 133 205
e 133 211
e 133 221
e 133 231
e 133 240
e 134 155
e 134 191
e 134 196
e 134 209
e 134 218
e 134 231
e 134 232
e 134 240
e 134 242
e 134 243
e 134 246
e 135 141
e 135 145
e 135 151
e 135 182
e 135 197
e 135 201
e 135 208
e 135 214
e 135 224
e 135 240
e 136 141
e 136 152
e 136 171
e 136 173
e 136 176
e 136 188
e 136 196
e 136 197
e 136 210
e 136 212
e 136 222
e 136 225
e 136 232
e 136 244
e 137 153
e 137 157
e 137 169
e 137 172
e 137 179
e 137 209
e 137 218
e 137 219
e 137 225
e 137 245
e 137 248
e 138 143
e 138 144
e 138 146
e 138 162
e 138 171
e 138 176
e 138 195
e 138 214
e 138 234
e 139 140
e 139 142
e 139 143
e 139 151
e 139 155
e 139 159
e 139 164
e 139 176
e 139 182
e 139 189
e 139 196
e 139 198
e 139 209
e 139 214
e 139 216
e 139 219
e 139 222
e 139 234
e 139 240
e 139 243
e 140 160
e 140 161
e 140 172
e 140 193
e 140 200
e 140 205
e 140 226
e 140 230
e 141 147
e 141 149
e 141 158
e 141 171
e 141 176
e 141 186
e 141 193
e 141 204
e 141 207
e 141 220
e 141 232
e 141 242
e 142 143
e 142 146
e 142 156
e 142 178
e 142 188
e 142 201
e 142 215
e 142 223
e 142 249
e 143 151
e 143 159
e 143 169
e 143 171
e 143 182
e 143 198
e 143 212
e 143 229
e 143 243
e 143 245
e 144 145
e 144 150
e 144 154
e 144 164
e 144 187
e 144 190
e 144 192
e 144 201
e 144 220
e 144 223
e 144 227
e 144 237
e 145 147
e 145 149
e 145 167
e 145 199
e 145 222
e 145 223
e 145 233
e 145 244
e 146 157
e 146 188
e 146 191
e 146 196
e 146 203
e 146 228
e 146 233
e 147 155
e 147 177
e 147 200
e 147 214
e 147 220
e 147 224
e 147 225
e 147 234
e 147 235
e 148 154
e 148 162
e 148 168
e 148 177
e 148 212
e 148 216
e 148 221
e 148 238
e 148 240
e 148 244
e 149 158
e 149 185
e 149 188
e 149 193
e 149 217
e 149 226
e 149 237
e 149 245
e 150 165
e 150 201
e 150 226
e 150 230
e 151 157
e 151 171
e 151 193
e 151 204
e 151 209
e 151 212
e 151 214
e 151 215
e 151 243
e 152 170
e 152 200
e 152 219
e 152 225
e 152 231
e 152 235
e 152 239
e 153 165
e 153 177
e 153 186
e 153 190
e 153 229
e 153 230
e 153 240
e 154 156
e 154 162
e 154 179
e 154 180
e 154 189
e 154 218
e 154 243
e 155 171
e 155 183
e 155 194
e 155 209
e 155 212
e 155 213
e 155 219
e 155 227
e 155 230
e 155 235
e 155 236
e 155 244
e 155 249
e 156 171
e 156 185
e 156 193
e 156 209
e 156 213
e 156 216
e 156 217
e 156 220
e 156 222
e 156 232
e 157 160
e 157 161
e 157 162
e 157 164
e 157 192
e 157 200
e 157 203
e 157 204
e 157 229
e 157 230
e 157 231
e 157 244
e 157 246
e 158 195
e 158 206
e 158 216
e 158 227
e 158 238
e 158 243
e 159 173
e 159 185
e 159 186
e 159 187
e 159 189
e 159 193
e 159 203
e 159 214
e 159 220
e 159 223
e 159 225
e 159 227
e 159 230
e 159 245
e 159 249
e 160 166
e 160 170
e 160 199
e 160 210
e 160 226
e 160 235
e 160 239
e 160 248
e 161 169
e 161 181
e 161 182
e 161 227
e 162 172
e 162 188
e 162 200
e 162 202
e 162 220
e 162 230
e 163 174
e 163 179
e 163 199
e 163 214
e 163 226
e 163 248
e 164 165
e 164 167
e 164 181
e 164 182
e 164 187
e 164 208
e 164 230
e 164 234
e 164 237
e 164 240
e 164 247
e 164 248
e 165 166
e 165 173
e 165 174
e 165 204
e 165 234
e 165 240
e 165 248
e 166 172
e 166 177
e 166 178
e 166 187
e 166 200
e 166 202
e 166 211
e 166 229
e 166 237
e 166 245
e 166 247
e 166 249
e 167 177
e 167 182
e 167 189
e 167 192
e 167 195
e 167 206
e 167 216
e 168 183
e 168 200
e 168 239
e 169 170
e 169 235
e 169 241
e 169 242
e 169 248
e 169 249
e 170 187
e 170 206
e 170 212
e 170 232
e 170 236
e 170 242
e 170 246
e 170 248
e 171 176
e 171 189
e 171 195
e 171 203
e 171 204
e 171 215
e 171 219
e 171 225
e 171 249
e 172 184
e 172 193
e 172 196
e 172 212
e 172 220
e 172 226
e 172 229
e 172 234
e 172 238
e 172 239
e 172 244
e 173 182
e 173 198
e 173 204
e 173 218
e 173 241
e 174 176
e 174 202
e 174 209
e 174 212
e 174 228
e 174 231
e 174 241
e 174 248
e 175 179
e 175 191
e 175 199
e 175 214
e 175 228
e 175 235
e 175 237
e 175 242
e 175 247
e 175 248
e 176 177
e 176 179
e 176 183
e 176 208
e 176 210
e 176 217
e 176 226
e 176 227
e 177 196
e 177 212
e 177 214
e 177 216
e 177 239
e 177 244
e 177 248
e 178 184
e 178 198
e 178 217
e 178 218
e 178 223
e 178 226
e 178 231
e 178 236
e 178 246
e 179 189
e 179 191
e 179 199
e 179 209
e 179 210
e 179 225
e 180 196
e 180 203
e 180 227
e 180 238
e 180 243
e 181 189
e 181 190
e 181 194
e 181 204
e 181 239
e 182 188
e 182 189
e 182 203
e 182 210
e 182 248
e 183 205
e 183 212
e 183 249
e 184 197
e 184 216
e 184 218
e 184 220
e 184 223
e 185 204
e 185 210
e 185 213
e 185 214
e 186 187
e 186 193
e 186 194
e 186 211
e 186 240
e 186 244
e 187 208
e 187 225
e 187 231
e 187 236
e 187 239
e 187 248
e 188 195
e 188 203
e 188 207
e 188 210
e 188 215
e 188 221
e 188 225
e 188 233
e 188 241
e 189 193
e 189 196
e 189 207
e 189 210
e 189 219
e 190 230
e 190 248
e 191 197
e 191 203
e 191 210
e 191 215
e 191 225
e 192 199
e 192 201
e 192 213
e 192 230
e 192 247
e 192 248
e 192 249
e 193 208
e 193 214
e 193 221
e 193 223
e 193 228
e 193 233
e 193 234
e 193 235
e 193 245
e 194 208
e 194 213
e 194 231
e 194 248
e 195 205
e 195 210
e 195 221
e 195 223
e 195 226
e 195 231
e 195 232
e 195 233
e 195 248
e 196 205
e 196 210
e 196 211
e 196 213
e 196 214
e 196 230
e 196 235
e 196 249
e 197 202
e 197 211
e 197 212
e 197 222
e 197 224
e 197 228
e 197 232
e 197 233
e 198 210
e 198 217
e 198 218
e 198 242
e 198 244
e 199 205
e 199 226
e 199 237
e 199 248
e 200 210
e 200 224
e 200 228
e 200 229
e 200 230
e 200 247
e 201 206
e 201 210
e 201 212
e 201 214
e 201 231
e 201 242
e 202 208
e 202 211
e 202 213
e 202 236
e 202 237
e 203 206
e 203 209
e 203 215
e 203 221
e 204 206
e 204 208
e 204 211
e 204 215
e 204 220
e 204 234
e 205 210
e 205 216
e 205 225
e 205 227
e 205 228
e 205 230
e 205 239
e 206 208
e 206 215
e 206 221
e 206 222
e 206 224
e 206 225
e 206 234
e 207 221
e 207 232
e 207 235
e 207 242
e 208 213
e 208 222
e 208 233
e 208 234
e 208 236
e 208 249
e 209 211
e 209 213
e 209 216
e 209 217
e 209 221
e 209 232
e 209 234
e 209 242
e 209 248
e 210 216
e 210 219
e 210 230
e 210 235
e 210 240
e 211 215
e 211 227
e 211 241
e 211 243
e 211 246
e 211 247
e 212 245
e 212 249
e 213 234
e 213 247
e 214 248
e 215 221
e 215 224
e 215 238
e 216 221
e 216 229
e 216 234
e 216 237
e 216 240
e 216 242
e 217 221
e 217 223
e 217 231
e 217 245
e 217 249
e 218 237
e 218 240
e 219 220
e 219 221
e 219 225
e 219 240
e 219 242
e 219 247
e 219 249
e 220 221
e 220 232
e 220 233
e 221 224
e 221 235
e 221 244
e 221 246
e 222 223
e 222 238
e 222 240
e 223 225
e 223 239
e 224 231
e 224 233
e 224 240
e 224 241
e 224 247
e 225 244
e 225 245
e 226 228
e 226 229
e 227 241
e 227 243
e 228 236
e 229 233
e 229 241
e 230 235
e 230 244
e 232 239
e 232 243
e 234 244
e 234 249
e 236 248
e 237 246
e 239 240
e 239 244
e 240 241
e 240 245
e 244 249
e 246 247
